NAME          DCAP_3_4_2_200_SS166
ROWS
 N  OBJ
 L  CON1
 L  CON2
 L  CON3
 L  CON4
 L  CON5
 L  CON6
 L  CON7
 L  CON8
 L  CON9
 L  CON10
 L  CON11
 L  CON12
 E  CON13
 E  CON14
 E  CON15
 E  CON16
 E  CON17
 E  CON18
 E  CON19
 E  CON20
COLUMNS
    x[1,1]    OBJ       6.180167      CON1      1.000000    
    x[1,1]    CON7      -1.000000     CON8      -1.000000   
    x[1,2]    OBJ       5.039546      CON2      1.000000    
    x[1,2]    CON8      -1.000000   
    x[2,1]    OBJ       6.732585      CON3      1.000000    
    x[2,1]    CON9      -1.000000     CON10     -1.000000   
    x[2,2]    OBJ       7.443064      CON4      1.000000    
    x[2,2]    CON10     -1.000000   
    x[3,1]    OBJ       6.563535      CON5      1.000000    
    x[3,1]    CON11     -1.000000     CON12     -1.000000   
    x[3,2]    OBJ       6.054841      CON6      1.000000    
    x[3,2]    CON12     -1.000000   
    MARKER    'MARKER'                'INTORG'
    u[1,1]    OBJ       48.076654     CON1      -1.000000   
    u[1,2]    OBJ       49.466655     CON2      -1.000000   
    u[2,1]    OBJ       49.996186     CON3      -1.000000   
    u[2,2]    OBJ       32.230043     CON4      -1.000000   
    u[3,1]    OBJ       20.066487     CON5      -1.000000   
    u[3,2]    OBJ       27.484319     CON6      -1.000000   
    y[1,1,1]  OBJ       9.098464      CON7      0.905405    
    y[1,1,1]  CON13     1.000000    
    y[1,1,2]  OBJ       9.824064      CON8      0.787604    
    y[1,1,2]  CON14     1.000000    
    y[1,2,1]  OBJ       8.703348      CON7      0.564344    
    y[1,2,1]  CON15     1.000000    
    y[1,2,2]  OBJ       9.442844      CON8      1.114468    
    y[1,2,2]  CON16     1.000000    
    y[1,3,1]  OBJ       6.220420      CON7      0.808348    
    y[1,3,1]  CON17     1.000000    
    y[1,3,2]  OBJ       9.760991      CON8      0.555001    
    y[1,3,2]  CON18     1.000000    
    y[1,4,1]  OBJ       7.176206      CON7      1.052569    
    y[1,4,1]  CON19     1.000000    
    y[1,4,2]  OBJ       6.390811      CON8      1.280093    
    y[1,4,2]  CON20     1.000000    
    y[2,1,1]  OBJ       5.096300      CON9      0.905405    
    y[2,1,1]  CON13     1.000000    
    y[2,1,2]  OBJ       7.818899      CON10     0.787604    
    y[2,1,2]  CON14     1.000000    
    y[2,2,1]  OBJ       8.247119      CON9      0.564344    
    y[2,2,1]  CON15     1.000000    
    y[2,2,2]  OBJ       9.943370      CON10     1.114468    
    y[2,2,2]  CON16     1.000000    
    y[2,3,1]  OBJ       9.371003      CON9      0.808348    
    y[2,3,1]  CON17     1.000000    
    y[2,3,2]  OBJ       5.787790      CON10     0.555001    
    y[2,3,2]  CON18     1.000000    
    y[2,4,1]  OBJ       5.743127      CON9      1.052569    
    y[2,4,1]  CON19     1.000000    
    y[2,4,2]  OBJ       9.798607      CON10     1.280093    
    y[2,4,2]  CON20     1.000000    
    y[3,1,1]  OBJ       5.718856      CON11     0.905405    
    y[3,1,1]  CON13     1.000000    
    y[3,1,2]  OBJ       8.095939      CON12     0.787604    
    y[3,1,2]  CON14     1.000000    
    y[3,2,1]  OBJ       7.033653      CON11     0.564344    
    y[3,2,1]  CON15     1.000000    
    y[3,2,2]  OBJ       5.032680      CON12     1.114468    
    y[3,2,2]  CON16     1.000000    
    y[3,3,1]  OBJ       8.699669      CON11     0.808348    
    y[3,3,1]  CON17     1.000000    
    y[3,3,2]  OBJ       8.374296      CON12     0.555001    
    y[3,3,2]  CON18     1.000000    
    y[3,4,1]  OBJ       9.118190      CON11     1.052569    
    y[3,4,1]  CON19     1.000000    
    y[3,4,2]  OBJ       6.916439      CON12     1.280093    
    y[3,4,2]  CON20     1.000000    
    z[1,1]    OBJ       532.983227    CON13     1.000000    
    z[1,2]    OBJ       659.559301    CON14     1.000000    
    z[2,1]    OBJ       554.825734    CON15     1.000000    
    z[2,2]    OBJ       721.998383    CON16     1.000000    
    z[3,1]    OBJ       517.974013    CON17     1.000000    
    z[3,2]    OBJ       715.753029    CON18     1.000000    
    z[4,1]    OBJ       921.318645    CON19     1.000000    
    z[4,2]    OBJ       773.773962    CON20     1.000000    
    MARKER    'MARKER'                 'INTEND'
RHS
    RHS       CON1      -0.000000     CON2      -0.000000   
    RHS       CON3      -0.000000     CON4      -0.000000   
    RHS       CON5      -0.000000     CON6      -0.000000   
    RHS       CON7      -0.000000     CON8      -0.000000   
    RHS       CON9      -0.000000     CON10     -0.000000   
    RHS       CON11     -0.000000     CON12     -0.000000   
    RHS       CON13     1.000000      CON14     1.000000    
    RHS       CON15     1.000000      CON16     1.000000    
    RHS       CON17     1.000000      CON18     1.000000    
    RHS       CON19     1.000000      CON20     1.000000    
BOUNDS
 BV BOUND     u[1,1]  
 BV BOUND     u[1,2]  
 BV BOUND     u[2,1]  
 BV BOUND     u[2,2]  
 BV BOUND     u[3,1]  
 BV BOUND     u[3,2]  
 BV BOUND     y[1,1,1]
 BV BOUND     y[1,1,2]
 BV BOUND     y[1,2,1]
 BV BOUND     y[1,2,2]
 BV BOUND     y[1,3,1]
 BV BOUND     y[1,3,2]
 BV BOUND     y[1,4,1]
 BV BOUND     y[1,4,2]
 BV BOUND     y[2,1,1]
 BV BOUND     y[2,1,2]
 BV BOUND     y[2,2,1]
 BV BOUND     y[2,2,2]
 BV BOUND     y[2,3,1]
 BV BOUND     y[2,3,2]
 BV BOUND     y[2,4,1]
 BV BOUND     y[2,4,2]
 BV BOUND     y[3,1,1]
 BV BOUND     y[3,1,2]
 BV BOUND     y[3,2,1]
 BV BOUND     y[3,2,2]
 BV BOUND     y[3,3,1]
 BV BOUND     y[3,3,2]
 BV BOUND     y[3,4,1]
 BV BOUND     y[3,4,2]
 BV BOUND     z[1,1]  
 BV BOUND     z[1,2]  
 BV BOUND     z[2,1]  
 BV BOUND     z[2,2]  
 BV BOUND     z[3,1]  
 BV BOUND     z[3,2]  
 BV BOUND     z[4,1]  
 BV BOUND     z[4,2]  
ENDATA
